70
3 1 12
4 1 3
5 0 8
5 1 6
5 4 4
6 1 6
6 4 3
6 5 11
7 4 9
7 6 4
8 1 2
8 4 5
8 5 3
9 2 2
9 6 5
9 7 5
10 0 7
10 1 11
10 3 12
10 6 4
10 8 4
11 0 3
11 2 11
11 3 3
11 4 4
11 7 6
11 9 10
11 10 6
12 6 5
12 7 7
12 11 2
13 1 4
13 2 2
13 4 3
13 5 3
13 9 8
13 10 5
13 11 11
13 12 8
14 2 2
14 4 11
14 7 5
14 12 10
15 0 9
15 1 10
15 3 4
15 4 6
15 5 4
15 6 9
15 8 1
15 9 3
15 10 5
15 13 8
16 0 3
16 5 12
16 6 5
16 8 5
16 9 5
16 10 3
16 12 1
16 13 9
16 14 8
17 1 9
17 2 5
17 3 1
17 5 11
17 6 5
17 8 9
17 10 11
17 12 4
17 14 4
17 16 5
18 0 11
18 2 6
18 5 9
18 6 3
18 7 6
18 8 7
18 9 6
18 10 12
18 12 11
18 13 10
18 14 2
18 15 6
18 16 8
19 1 9
19 5 11
19 7 4
19 11 3
19 12 9
19 13 10
19 14 7
19 15 11
19 16 7
19 18 11
20 1 8
20 2 8
20 4 8
20 5 4
20 7 4
20 9 2
20 10 6
20 15 11
20 16 1
20 17 12
20 18 5
21 0 12
21 2 8
21 6 9
21 8 5
21 10 1
21 12 2
21 13 12
21 14 8
21 16 4
21 19 11
21 20 2
22 1 3
22 4 12
22 7 2
22 10 3
22 12 5
22 16 9
22 17 11
22 20 12
22 21 4
23 0 11
23 2 3
23 3 1
23 4 3
23 5 4
23 8 3
23 11 9
23 13 5
23 16 12
23 17 12
23 18 5
23 20 6
23 21 12
23 22 10
24 1 3
24 4 9
24 6 3
24 7 6
24 9 2
24 10 11
24 11 3
24 12 10
24 14 9
24 16 8
24 19 6
24 21 3
24 23 10
25 0 12
25 1 1
25 2 3
25 3 7
25 4 3
25 5 1
25 7 9
25 8 2
25 9 3
25 11 5
25 12 4
25 15 6
25 16 5
25 17 2
25 18 11
25 23 8
25 24 12
26 3 11
26 4 3
26 5 7
26 6 1
26 7 3
26 11 3
26 14 6
26 15 1
26 16 11
26 17 1
26 18 6
26 20 5
26 21 2
26 22 12
26 23 10
26 25 5
27 0 3
27 3 7
27 6 3
27 7 4
27 8 3
27 9 5
27 10 6
27 11 6
27 13 9
27 15 4
27 16 5
27 17 4
27 19 11
27 20 3
27 21 6
27 22 9
27 24 11
27 25 2
28 3 7
28 5 7
28 6 9
28 7 9
28 9 11
28 10 3
28 11 5
28 12 8
28 15 1
28 16 5
28 18 6
28 20 3
28 21 7
28 24 4
28 25 9
28 27 6
29 0 4
29 2 11
29 6 3
29 7 4
29 10 9
29 15 6
29 18 2
29 20 10
29 22 2
30 0 1
30 5 8
30 7 6
30 13 6
30 14 3
30 15 8
30 16 11
30 17 1
30 19 1
30 20 9
30 21 5
30 22 9
30 26 11
30 28 7
31 0 3
31 1 3
31 4 9
31 8 11
31 15 7
31 16 1
31 17 10
31 18 3
31 20 7
31 22 11
31 23 2
31 26 10
31 28 5
31 29 10
32 3 9
32 5 2
32 6 6
32 7 11
32 8 1
32 12 10
32 13 7
32 15 4
32 20 1
32 22 3
32 23 2
32 25 3
32 27 5
32 28 5
33 5 12
33 6 9
33 7 8
33 9 7
33 10 8
33 12 4
33 22 9
33 26 3
33 28 9
34 0 8
34 1 8
34 2 2
34 3 3
34 8 2
34 9 6
34 14 9
34 16 8
34 20 4
34 21 1
34 23 12
34 27 3
35 2 2
35 4 10
35 6 1
35 8 3
35 9 3
35 10 9
35 11 6
35 13 3
35 15 5
35 16 1
35 19 11
35 20 4
35 21 5
35 23 4
35 24 3
35 25 10
35 28 8
35 29 3
35 31 11
35 32 2
36 0 1
36 3 7
36 5 7
36 6 12
36 7 11
36 9 1
36 13 6
36 14 2
36 15 10
36 17 1
36 18 7
36 19 9
36 21 4
36 23 6
36 27 7
36 28 11
36 30 9
36 31 5
36 34 9
37 1 5
37 2 4
37 6 11
37 7 5
37 8 12
37 9 3
37 15 5
37 16 3
37 18 7
37 19 9
37 20 12
37 21 12
37 24 5
37 25 10
37 27 7
37 28 9
37 29 8
37 30 12
37 31 7
37 32 10
37 34 4
37 35 5
37 36 9
38 1 8
38 3 8
38 4 11
38 8 11
38 9 8
38 10 5
38 11 8
38 12 9
38 15 10
38 17 12
38 19 3
38 21 9
38 22 8
38 23 12
38 25 10
38 28 12
38 29 7
39 0 12
39 2 9
39 3 12
39 7 11
39 8 1
39 9 5
39 10 6
39 11 12
39 15 5
39 18 10
39 19 1
39 24 1
39 25 8
39 26 10
39 28 4
39 35 4
39 38 6
40 0 8
40 1 2
40 2 12
40 4 3
40 7 8
40 9 3
40 10 10
40 11 9
40 13 7
40 15 5
40 17 5
40 19 2
40 22 6
40 23 4
40 26 3
40 31 9
40 32 9
40 34 11
40 35 7
40 39 2
41 1 11
41 2 11
41 3 6
41 4 7
41 6 12
41 8 1
41 14 4
41 16 2
41 18 6
41 19 8
41 21 5
41 22 4
41 27 5
41 28 6
41 33 1
41 35 11
41 36 10
41 38 1
41 39 11
41 40 11
42 0 6
42 2 7
42 3 5
42 4 3
42 5 6
42 7 12
42 8 5
42 9 9
42 10 4
42 16 10
42 17 1
42 18 10
42 19 3
42 22 10
42 25 10
42 26 1
42 27 1
42 28 5
42 30 5
42 31 6
42 33 1
42 34 9
42 36 7
42 37 8
42 38 11
42 39 2
43 1 8
43 5 12
43 6 1
43 8 7
43 11 5
43 14 6
43 15 10
43 20 3
43 21 1
43 24 6
43 26 11
43 27 5
43 29 3
43 30 2
43 31 10
43 33 11
43 34 3
43 35 1
43 36 9
43 37 7
43 39 1
43 40 8
43 41 8
43 42 12
44 4 7
44 14 12
44 15 7
44 16 7
44 18 5
44 20 9
44 21 4
44 22 5
44 23 2
44 26 8
44 31 1
44 32 1
44 33 1
44 35 10
44 37 2
44 38 11
45 0 5
45 1 2
45 4 10
45 5 3
45 8 11
45 9 2
45 11 2
45 12 8
45 13 6
45 17 3
45 18 9
45 20 3
45 21 7
45 22 7
45 28 3
45 31 4
45 32 10
45 33 7
45 40 6
45 41 1
45 43 3
46 0 1
46 6 2
46 9 4
46 10 12
46 11 12
46 12 9
46 13 5
46 18 11
46 21 3
46 22 8
46 26 6
46 29 4
46 30 9
46 32 7
46 36 11
46 39 6
46 40 7
46 43 7
46 44 7
47 0 6
47 1 10
47 4 4
47 5 1
47 9 11
47 11 11
47 14 3
47 16 1
47 18 12
47 21 4
47 23 9
47 28 11
47 34 9
47 35 8
47 40 11
47 42 4
47 45 12
47 46 7
48 0 2
48 1 10
48 9 10
48 10 8
48 11 7
48 12 10
48 13 2
48 14 4
48 15 11
48 16 8
48 21 5
48 23 11
48 25 9
48 26 2
48 29 7
48 30 7
48 33 8
48 34 8
48 35 3
48 37 5
48 42 9
48 44 6
48 45 7
49 2 11
49 3 1
49 4 7
49 6 4
49 7 6
49 8 11
49 10 9
49 12 2
49 16 6
49 19 7
49 22 11
49 24 12
49 26 1
49 27 3
49 28 7
49 32 8
49 33 6
49 34 2
49 35 3
49 36 9
49 39 9
49 41 8
49 42 1
49 43 8
49 44 9
49 45 3
50 1 4
50 2 2
50 3 3
50 5 9
50 6 4
50 7 10
50 11 6
50 13 2
50 16 7
50 17 3
50 18 11
50 19 7
50 20 11
50 22 7
50 23 5
50 26 5
50 27 4
50 31 3
50 32 2
50 37 12
50 38 2
50 42 10
50 43 1
50 44 10
50 45 1
50 46 3
50 47 8
50 48 2
50 49 5
51 0 11
51 6 9
51 7 4
51 9 12
51 10 7
51 12 11
51 13 2
51 14 8
51 17 9
51 18 2
51 21 5
51 22 8
51 24 7
51 25 9
51 26 6
51 28 2
51 29 8
51 30 6
51 32 8
51 34 5
51 37 5
51 39 7
51 45 6
51 46 2
51 48 8
51 49 10
52 0 2
52 3 7
52 5 5
52 7 6
52 9 8
52 14 6
52 15 4
52 16 2
52 17 1
52 19 11
52 20 2
52 21 10
52 22 3
52 27 12
52 32 4
52 33 4
52 34 11
52 35 4
52 37 10
52 40 5
52 43 12
52 44 2
52 46 5
52 47 9
52 49 3
52 51 8
53 0 8
53 3 6
53 4 6
53 8 2
53 10 9
53 12 3
53 13 12
53 15 6
53 22 1
53 23 2
53 24 2
53 25 12
53 27 9
53 28 12
53 31 7
53 33 3
53 34 6
53 38 8
53 40 6
53 44 7
53 50 6
54 0 2
54 2 11
54 3 8
54 4 9
54 5 5
54 10 6
54 11 3
54 12 12
54 13 10
54 15 7
54 16 11
54 17 12
54 19 5
54 20 7
54 21 3
54 25 10
54 26 5
54 27 7
54 28 5
54 31 9
54 32 11
54 33 2
54 34 6
54 37 7
54 39 6
54 40 6
54 41 12
54 42 4
54 43 7
54 44 5
54 47 12
54 49 4
54 51 11
54 52 11
55 0 10
55 1 1
55 3 6
55 4 4
55 5 8
55 6 5
55 7 7
55 8 11
55 10 3
55 12 8
55 13 1
55 15 2
55 16 7
55 17 10
55 18 1
55 20 11
55 22 5
55 23 1
55 26 3
55 28 7
55 29 8
55 30 10
55 32 1
55 35 11
55 36 3
55 37 2
55 38 3
55 40 10
55 42 12
55 46 11
55 47 10
55 49 6
55 51 11
55 54 6
56 0 8
56 2 7
56 4 1
56 9 8
56 11 9
56 12 5
56 14 7
56 19 2
56 22 7
56 23 9
56 26 10
56 30 4
56 32 5
56 33 12
56 34 8
56 35 7
56 36 3
56 37 12
56 38 5
56 39 12
56 40 8
56 43 10
56 45 6
56 48 7
56 50 8
56 51 7
57 1 6
57 2 4
57 3 8
57 5 7
57 6 2
57 8 3
57 10 11
57 14 7
57 16 1
57 17 8
57 18 1
57 20 6
57 21 9
57 22 4
57 23 7
57 25 12
57 26 7
57 28 5
57 29 8
57 30 6
57 32 12
57 34 12
57 37 11
57 40 6
57 43 4
57 44 1
57 49 10
57 50 1
57 51 1
57 52 7
57 53 9
57 55 1
58 5 12
58 7 3
58 8 8
58 10 4
58 12 6
58 13 1
58 14 10
58 17 9
58 18 7
58 20 9
58 21 1
58 23 8
58 24 11
58 25 10
58 26 1
58 27 3
58 31 12
58 32 12
58 33 1
58 34 10
58 35 8
58 38 2
58 40 11
58 42 9
58 43 10
58 48 2
58 51 10
58 53 12
58 55 9
58 57 3
59 0 12
59 3 10
59 4 11
59 5 10
59 7 10
59 8 7
59 11 4
59 12 6
59 13 9
59 15 3
59 19 6
59 20 12
59 22 1
59 23 11
59 24 1
59 25 3
59 26 11
59 30 5
59 31 7
59 32 4
59 34 7
59 35 7
59 36 1
59 37 5
59 39 4
59 43 1
59 44 11
59 46 12
59 48 8
59 52 12
59 53 6
59 56 8
59 58 11
60 0 7
60 1 6
60 2 8
60 4 12
60 5 8
60 7 2
60 8 7
60 9 7
60 10 9
60 12 9
60 13 6
60 15 2
60 16 7
60 17 9
60 18 5
60 23 4
60 24 12
60 25 1
60 27 11
60 30 5
60 33 7
60 35 6
60 36 1
60 37 3
60 38 10
60 42 6
60 45 10
60 46 1
60 47 4
60 49 7
60 50 5
60 51 6
60 52 10
60 54 5
60 55 6
60 58 12
60 59 11
61 0 4
61 2 1
61 7 11
61 8 11
61 10 8
61 11 12
61 16 4
61 19 11
61 21 4
61 22 5
61 23 2
61 25 7
61 27 7
61 29 7
61 30 5
61 31 2
61 32 2
61 33 11
61 34 6
61 36 4
61 38 9
61 40 2
61 41 6
61 42 7
61 44 4
61 45 2
61 46 5
61 50 2
61 51 9
61 52 6
61 53 9
61 54 10
62 2 10
62 3 9
62 4 7
62 5 12
62 7 8
62 12 6
62 13 12
62 16 3
62 18 4
62 20 8
62 27 7
62 29 9
62 30 6
62 32 5
62 35 3
62 38 2
62 39 10
62 47 12
62 48 1
62 52 10
62 54 3
62 57 11
62 58 4
62 59 12
62 61 7
63 0 7
63 1 10
63 4 12
63 5 3
63 7 1
63 8 8
63 12 2
63 14 2
63 15 4
63 20 4
63 21 7
63 22 5
63 29 10
63 30 1
63 31 7
63 33 11
63 34 2
63 36 6
63 38 11
63 39 8
63 40 5
63 42 11
63 46 3
63 50 2
63 54 12
63 56 3
63 57 4
63 62 3
64 0 6
64 3 1
64 4 8
64 5 2
64 7 9
64 9 6
64 12 2
64 16 2
64 17 8
64 18 5
64 20 2
64 22 6
64 29 1
64 30 6
64 31 4
64 35 6
64 38 3
64 40 8
64 45 3
64 46 5
64 49 4
64 51 5
64 53 3
64 57 3
64 59 10
64 62 5
64 63 8
65 0 4
65 1 10
65 2 5
65 3 1
65 6 2
65 9 5
65 10 2
65 12 2
65 13 6
65 17 2
65 19 6
65 21 1
65 23 12
65 25 4
65 27 5
65 28 7
65 31 4
65 32 1
65 33 2
65 35 8
65 36 12
65 38 2
65 40 10
65 44 8
65 46 6
65 48 6
65 50 12
65 51 3
65 52 9
65 54 4
65 55 4
65 56 11
65 57 3
65 58 8
65 60 5
65 62 6
66 2 10
66 5 8
66 9 4
66 10 1
66 11 11
66 13 9
66 15 11
66 16 9
66 17 12
66 18 6
66 21 11
66 24 3
66 25 2
66 26 6
66 28 11
66 29 2
66 34 2
66 35 6
66 36 1
66 37 10
66 40 6
66 41 9
66 43 1
66 44 10
66 46 4
66 47 9
66 49 3
66 51 3
66 53 11
66 60 2
66 63 6
67 3 10
67 4 8
67 9 6
67 13 6
67 14 3
67 16 4
67 18 6
67 19 6
67 20 2
67 21 8
67 26 9
67 29 11
67 31 2
67 34 5
67 38 7
67 43 10
67 44 9
67 45 8
67 46 3
67 47 4
67 48 6
67 51 5
67 52 10
67 53 12
67 55 4
67 61 8
67 62 3
67 63 12
67 65 3
68 0 12
68 1 12
68 2 11
68 3 3
68 5 11
68 6 3
68 9 3
68 10 7
68 12 6
68 15 6
68 17 12
68 19 4
68 20 5
68 21 4
68 22 11
68 28 2
68 29 12
68 31 8
68 32 10
68 33 5
68 34 7
68 36 8
68 38 9
68 39 12
68 41 5
68 45 8
68 48 5
68 49 2
68 50 9
68 52 3
68 56 5
68 57 2
68 58 4
68 61 11
68 63 4
68 64 5
68 66 9
68 67 2
69 1 4
69 3 1
69 4 6
69 6 8
69 8 11
69 13 4
69 17 9
69 18 8
69 19 12
69 20 8
69 21 11
69 25 3
69 29 1
69 30 9
69 31 7
69 33 12
69 34 4
69 36 10
69 37 1
69 38 5
69 40 2
69 41 4
69 42 11
69 44 6
69 46 4
69 47 8
69 50 9
69 51 2
69 56 4
69 58 9
69 59 8
69 64 4
69 65 10
69 66 8
69 67 8
69 68 11
